Route #1: 27 97 19
Route #2: 86 9 92
Route #3: 21 56 94 80
Route #4: 79 11 85 30
Route #5: 14 49 6 37 87
Route #6: 8 17
Route #7: 38 47 26 48 96 64 34
Route #8: 39 10 18
Route #9: 31 46 35
Route #10: 93 75
Route #11: 74 13 4
Route #12: 44 67 88 40
Route #13: 89 98 99 62 71
Route #14: 69 16 55 76
Route #15: 83 51 81
Route #16: 59 60 82
Route #17: 3 77 63
Route #18: 100 61 23
Route #19: 57 72 36 29 43 45 2 7
Route #20: 68 90 84 66
Route #21: 1 70 54
Route #22: 15 22 41 20
Route #23: 52 91 50
Route #24: 58 12 5
Route #25: 32 33 53 73 95 24
Route #26: 25 65 78 42 28
Cost 27591.0000
Time 16.0010